NAME : zqloutput/eax-hard-simple-rescaleandround/50-93.tsp
TYPE : TSP
DIMENSION : 50
EDGE_WEIGHT_TYPE : EUC_2D
NODE_COORD_SECTION
1 381169 870637
2 63056 206385
3 698101 410854
4 543593 364305
5 59798 526417
6 627927 778576
7 723270 118394
8 444447 267518
9 640891 643242
10 357043 354157
11 128464 472133
12 766011 167855
13 395282 675880
14 945314 89951
15 409924 539967
16 116205 462123
17 929700 693981
18 942109 100421
19 936562 511
20 992982 607566
21 594492 911159
22 89061 360391
23 847364 49799
24 878626 75337
25 662815 838097
26 145266 714788
27 598255 6297
28 877417 640688
29 608722 539999
30 658623 219414
31 64776 550129
32 976425 420937
33 46060 36653
34 388349 855983
35 232600 755557
36 501706 759306
37 728658 354578
38 740069 264628
39 92615 403533
40 599463 233495
41 600958 143189
42 219832 685716
43 665012 477681
44 967866 700106
45 834392 502999
46 229068 35769
47 526366 394381
48 828039 398496
49 230903 643682
50 206427 608413
EOF
